TYPE : Vertex Cover
DIMENSION: 22
EDGE_DATA_SECTION:
0 1
0 3
0 7
0 15
0 17
2 5
2 8
2 10
2 12
2 16
2 18
3 7
3 9
3 14
4 9
4 13
4 14
4 19
6 12
6 13
7 8
7 18
9 13
9 18
10 11
10 18
10 21
11 13
12 14
12 19
13 14
15 18
15 19
15 20
16 17
16 20
18 20
-1
VERTEX_DEGREE:
5.0 1.0 6.0 4.0 4.0 1.0 2.0 4.0 2.0 4.0 4.0 2.0 4.0 5.0 4.0 4.0 3.0 2.0 6.0 3.0 3.0 1.0
VERTEX_COVER:
0 2 3 4 7 10 12 13 15 16 18
EOF
